p cnf 35 95
a 4 23 0
e 1 2 3 5 6 7 8 9 10 11 12 13 14 15 16 17 18 19 20 21 22 24 25 26 27 28 29 30 31 32 33 34 35 0
1 -2 -3 0
-1 2 -3 0
1 2 3 0
-1 -2 3 0
5 -6 -7 0
-5 6 -7 0
5 6 7 0
-5 -6 7 0
7 -8 -9 0
-7 8 -9 0
7 8 9 0
-7 -8 9 0
4 -9 -10 0
-4 9 -10 0
4 9 10 0
-4 -9 10 0
11 -3 0
11 10 0
3 -10 -11 0
13 5 0
13 12 0
-5 -12 -13 0
-15 -4 0
-15 14 0
4 -14 15 0
16 13 0
16 15 0
-13 -15 -16 0
-17 5 0
-17 7 0
-5 -7 17 0
19 -1 0
19 -18 0
1 18 -19 0
6 19 -20 0
-6 -19 -20 0
6 -19 20 0
-6 19 20 0
-8 -20 -21 0
8 20 -21 0
-8 20 21 0
8 -20 21 0
-23 7 0
-23 22 0
-7 -22 23 0
-24 -21 0
-24 23 0
21 -23 24 0
-25 -17 0
-25 -24 0
17 24 25 0
16 -25 -26 0
-16 25 -26 0
16 25 26 0
-16 -25 26 0
27 4 0
27 -2 0
-4 2 -27 0
20 1 -28 0
-20 -1 -28 0
20 -1 28 0
-20 1 28 0
27 -28 -29 0
-27 28 -29 0
27 28 29 0
-27 -28 29 0
30 29 0
30 22 0
-29 -22 -30 0
31 -4 0
31 2 0
4 -2 -31 0
32 -27 0
32 -31 0
27 31 -32 0
-33 30 0
-33 32 0
-30 -32 33 0
-34 26 0
-34 33 0
-26 -33 34 0
-11 -34 -35 0
11 34 -35 0
-11 34 35 0
11 -34 35 0
34 -20 -7 0
-3 19 -11 30 -27 0
-32 21 29 0
28 32 -27 33 0
-15 -8 35 -6 10 -12 -33 0
28 25 6 -32 0
-14 -26 -24 -23 0
-32 -11 -13 0
22 16 -35 -5 34 6 0
35 0
